0 130 
1 140 
2 140 
3 141 
4 141 
5 143 
6 144 
7 146 
8 143 
9 143 
10 146 
11 144 
12 141 
13 139 
14 138 
15 140 
16 140 
17 139 
18 136 
19 136 
20 133 
21 129 
22 127 
23 125 
24 126 
25 125 
26 123 
27 124 
28 122 
29 121 
30 118 
31 119 
32 118 
33 120 
34 121 
35 118 
36 114 
37 113 
38 111 
39 107 
40 105 
41 103 
42 101 
43 101 
44 99 
45 98 
46 94 
47 93 
48 92 
49 92 
50 91 
51 90 
52 89 
53 89 
54 87 
55 86 
56 83 
57 82 
58 80 
59 78 
60 81 
61 80 
62 77 
63 74 
64 73 
65 70 
66 70 
67 69 
68 66 
69 65 
70 63 
71 64 
72 61 
73 59 
74 59 
75 59 
76 55 
77 55 
78 53 
79 51 
80 49 
81 48 
82 48 
83 46 
84 50 
85 48 
86 46 
87 44 
88 45 
89 44 
90 43 
91 40 
92 40 
93 37 
94 35 
95 33 
96 34 
97 33 
98 31 
99 28 
100 28 
101 26 
102 24 
103 23 
104 20 
105 19 
106 18 
107 19 
108 18 
109 17 
110 15 
111 13 
112 12 
113 11 
114 9 
115 7 
116 6 
117 6 
118 7 
119 6 
120 6 
121 5 
122 4 
123 5 
124 4 
125 3 
126 1 
127 1 
128 0 
129 0 

